 Code  1633
 Dimension, Fixed Cost
   100        3000
 Facility, Client, Transportation Cost
     1       17           2
     1       19           0
     1       31           4
     1       57           1
     1       81           0
     1       85           1
     1       96           0
     1       98           3
     1       99           2
     1      100           3
     2       10           0
     2       20           1
     2       29           2
     2       32           0
     2       33           3
     2       43           2
     2       46           4
     2       47           3
     2       50           3
     2       60           1
     3       14           0
     3       15           0
     3       24           2
     3       25           4
     3       45           4
     3       75           0
     3       87           0
     3       90           2
     3       91           0
     3       92           3
     4       41           4
     4       68           3
     4       70           2
     4       76           4
     4       77           0
     4       83           0
     4       86           2
     4       88           4
     4       89           4
     4       94           3
     5       11           4
     5       17           2
     5       25           4
     5       28           0
     5       43           4
     5       52           1
     5       53           1
     5       71           1
     5       79           1
     5       83           4
     6        1           2
     6        5           0
     6       33           3
     6       35           0
     6       45           2
     6       72           2
     6       74           0
     6       79           4
     6       83           0
     6       89           2
     7       12           2
     7       17           0
     7       27           0
     7       31           4
     7       46           1
     7       48           3
     7       50           1
     7       54           4
     7       59           4
     7       75           4
     8        1           2
     8        8           2
     8        9           1
     8       37           2
     8       41           2
     8       48           0
     8       59           0
     8       64           3
     8       84           4
     8       88           3
     9       23           4
     9       24           1
     9       27           1
     9       39           0
     9       52           3
     9       76           1
     9       84           2
     9       87           0
     9       89           2
     9       93           2
    10       23           4
    10       60           1
    10       63           1
    10       65           3
    10       68           2
    10       69           1
    10       73           4
    10       75           2
    10       77           2
    10       80           0
    11        1           4
    11        4           0
    11       14           2
    11       16           0
    11       47           3
    11       50           4
    11       58           1
    11       70           1
    11       78           1
    11       81           2
    12       13           1
    12       16           3
    12       21           3
    12       29           2
    12       30           2
    12       31           3
    12       36           2
    12       39           3
    12       44           1
    12       49           1
    13       30           3
    13       39           4
    13       42           4
    13       55           2
    13       84           0
    13       94           1
    13       97           3
    13       98           1
    13       99           0
    13      100           3
    14        4           2
    14        8           0
    14       18           0
    14       37           1
    14       42           0
    14       63           3
    14       80           2
    14       81           1
    14       85           3
    14       87           4
    15       15           4
    15       24           1
    15       26           1
    15       44           2
    15       48           1
    15       90           1
    15       95           1
    15       97           0
    15       98           2
    15      100           2
    16        8           4
    16       15           2
    16       16           4
    16       19           2
    16       31           3
    16       34           1
    16       38           1
    16       39           0
    16       43           4
    16       53           1
    17       10           2
    17       23           1
    17       26           4
    17       63           1
    17       70           0
    17       77           3
    17       95           0
    17       96           4
    17       97           1
    17      100           0
    18        8           1
    18       18           2
    18       25           3
    18       56           3
    18       62           0
    18       67           3
    18       84           0
    18       88           1
    18       92           1
    18       93           4
    19        2           4
    19        4           2
    19       12           4
    19       30           3
    19       31           4
    19       52           1
    19       54           0
    19       63           3
    19       84           0
    19       88           2
    20        4           1
    20       21           1
    20       25           1
    20       49           4
    20       52           0
    20       56           4
    20       61           0
    20       79           1
    20       90           1
    20       98           0
    21        2           0
    21       19           3
    21       23           2
    21       66           0
    21       67           0
    21       68           4
    21       72           4
    21       79           2
    21       82           3
    21       86           0
    22        1           3
    22        5           3
    22       10           3
    22       14           1
    22       27           4
    22       28           1
    22       37           0
    22       48           1
    22       52           1
    22       57           2
    23       44           2
    23       68           2
    23       82           2
    23       94           0
    23       95           0
    23       96           1
    23       97           0
    23       98           1
    23       99           0
    23      100           1
    24        1           4
    24       16           0
    24       27           1
    24       50           1
    24       64           3
    24       72           3
    24       78           3
    24       87           0
    24       93           3
    24       94           3
    25       12           4
    25       19           3
    25       24           4
    25       28           4
    25       32           4
    25       38           0
    25       40           0
    25       47           1
    25       50           3
    25       51           4
    26       14           1
    26       21           0
    26       26           4
    26       29           0
    26       30           4
    26       34           2
    26       56           3
    26       66           1
    26       69           0
    26       90           4
    27        1           2
    27       11           3
    27       15           4
    27       24           4
    27       35           0
    27       36           4
    27       48           3
    27       58           0
    27       59           1
    27       61           1
    28        6           2
    28       18           3
    28       46           1
    28       54           3
    28       78           2
    28       82           3
    28       92           0
    28       93           1
    28       94           1
    28       96           0
    29        9           3
    29       15           1
    29       19           1
    29       25           4
    29       26           2
    29       33           4
    29       42           0
    29       64           0
    29       68           2
    29       73           0
    30       24           4
    30       30           3
    30       36           4
    30       60           1
    30       68           1
    30       78           0
    30       79           2
    30       82           1
    30       90           3
    30       92           4
    31        3           3
    31       18           3
    31       20           3
    31       22           1
    31       26           4
    31       31           3
    31       38           4
    31       40           1
    31       41           3
    31       62           2
    32       10           0
    32       11           1
    32       13           3
    32       22           2
    32       30           2
    32       33           3
    32       37           3
    32       44           0
    32       55           1
    32       65           4
    33       16           1
    33       28           0
    33       59           4
    33       74           3
    33       77           4
    33       82           4
    33       83           1
    33       87           3
    33       96           0
    33       97           0
    34        2           1
    34       13           1
    34       18           0
    34       27           4
    34       34           0
    34       39           0
    34       51           4
    34       61           1
    34       71           3
    34       80           0
    35       22           0
    35       40           3
    35       48           4
    35       59           0
    35       67           2
    35       81           0
    35       90           0
    35       93           0
    35       95           2
    35       99           3
    36        3           4
    36       14           1
    36       17           4
    36       24           2
    36       34           1
    36       42           4
    36       47           0
    36       55           0
    36       60           0
    36       62           2
    37        7           1
    37       11           2
    37       14           0
    37       15           0
    37       31           1
    37       34           0
    37       43           1
    37       49           2
    37       60           4
    37       62           2
    38        6           1
    38        9           3
    38       32           2
    38       43           3
    38       45           4
    38       49           4
    38       62           0
    38       79           2
    38       82           1
    38       85           4
    39        9           0
    39       21           1
    39       26           4
    39       30           0
    39       32           0
    39       37           3
    39       39           1
    39       40           2
    39       48           1
    39       54           1
    40        3           1
    40       12           3
    40       17           0
    40       25           0
    40       34           4
    40       45           3
    40       47           3
    40       67           4
    40       74           2
    40       75           3
    41       12           4
    41       20           4
    41       21           1
    41       39           2
    41       46           1
    41       55           2
    41       69           4
    41       88           2
    41       89           1
    41       91           2
    42        7           1
    42       19           2
    42       22           0
    42       32           0
    42       33           2
    42       42           2
    42       45           1
    42       55           3
    42       71           1
    42       78           0
    43        6           3
    43        9           0
    43       10           2
    43       18           3
    43       23           4
    43       40           0
    43       47           0
    43       49           3
    43       69           1
    43       70           4
    44        6           4
    44       12           3
    44       23           1
    44       25           2
    44       32           2
    44       41           2
    44       58           3
    44       71           0
    44       87           1
    44       90           3
    45        6           0
    45        7           1
    45       35           4
    45       42           0
    45       57           4
    45       60           3
    45       64           2
    45       72           2
    45       76           2
    45       79           4
    46        3           1
    46       12           4
    46       13           0
    46       14           2
    46       37           0
    46       54           2
    46       56           4
    46       58           2
    46       59           3
    46       81           2
    47       47           4
    47       56           4
    47       63           4
    47       70           1
    47       75           2
    47       92           1
    47       96           3
    47       98           2
    47       99           0
    47      100           1
    48       28           3
    48       52           2
    48       56           0
    48       57           1
    48       58           4
    48       59           2
    48       61           0
    48       73           4
    48       77           1
    48       78           2
    49       14           2
    49       15           2
    49       53           4
    49       70           2
    49       71           0
    49       72           4
    49       83           0
    49       86           3
    49       89           4
    49       91           3
    50       17           1
    50       26           4
    50       31           2
    50       50           3
    50       65           1
    50       74           4
    50       83           2
    50       85           0
    50       86           0
    50       88           1
    51        1           4
    51        5           3
    51       12           2
    51       20           1
    51       27           2
    51       56           3
    51       79           0
    51       83           2
    51       84           2
    51       85           0
    52        1           4
    52        8           0
    52       29           3
    52       38           0
    52       46           4
    52       53           3
    52       54           1
    52       70           1
    52       74           1
    52       77           0
    53        2           1
    53       44           1
    53       66           4
    53       69           3
    53       70           1
    53       86           3
    53       92           0
    53       95           1
    53       97           3
    53      100           3
    54       43           3
    54       50           3
    54       53           4
    54       60           0
    54       61           1
    54       73           3
    54       74           2
    54       81           4
    54       85           0
    54       87           4
    55        1           1
    55       21           1
    55       22           2
    55       29           3
    55       40           3
    55       41           3
    55       45           1
    55       49           4
    55       63           4
    55       70           4
    56       50           3
    56       62           0
    56       67           4
    56       69           4
    56       73           1
    56       76           4
    56       83           4
    56       92           0
    56       95           3
    56       99           1
    57        5           0
    57       11           3
    57       32           1
    57       56           1
    57       59           3
    57       64           3
    57       69           1
    57       73           0
    57       74           4
    57       82           1
    58       20           0
    58       32           2
    58       36           4
    58       37           3
    58       49           0
    58       62           4
    58       71           3
    58       77           1
    58       88           0
    58       95           2
    59        3           4
    59       10           1
    59       11           4
    59       53           3
    59       54           4
    59       72           2
    59       82           1
    59       94           1
    59       97           1
    59       98           1
    60        8           4
    60       21           0
    60       45           1
    60       89           1
    60       94           4
    60       95           4
    60       97           3
    60       98           4
    60       99           2
    60      100           4
    61       17           4
    61       22           3
    61       33           4
    61       35           0
    61       38           1
    61       47           0
    61       48           0
    61       51           2
    61       55           2
    61       58           0
    62        4           3
    62        7           3
    62       13           4
    62       15           0
    62       18           2
    62       27           0
    62       29           2
    62       42           2
    62       45           2
    62       57           3
    63        7           2
    63       17           0
    63       19           1
    63       35           0
    63       40           2
    63       41           3
    63       44           3
    63       51           4
    63       53           1
    63       57           2
    64        9           3
    64       26           3
    64       32           1
    64       53           4
    64       58           2
    64       60           4
    64       76           3
    64       80           4
    64       84           3
    64       88           1
    65       20           0
    65       34           0
    65       39           0
    65       49           1
    65       61           3
    65       75           3
    65       79           2
    65       87           0
    65       89           2
    65       92           1
    66        2           3
    66       11           2
    66       16           4
    66       28           0
    66       36           1
    66       45           3
    66       57           2
    66       66           4
    66       67           2
    66       69           2
    67       10           3
    67       24           3
    67       33           4
    67       48           2
    67       57           3
    67       59           1
    67       61           3
    67       73           1
    67       75           0
    67       81           4
    68        7           0
    68       19           0
    68       33           3
    68       50           2
    68       68           4
    68       73           4
    68       78           1
    68       81           3
    68       83           3
    68       86           4
    69        6           1
    69       11           3
    69       31           0
    69       38           3
    69       40           0
    69       43           2
    69       49           1
    69       54           3
    69       58           4
    69       64           4
    70       20           2
    70       35           0
    70       44           1
    70       52           0
    70       62           2
    70       64           1
    70       66           0
    70       90           2
    70       91           4
    70       96           0
    71        3           4
    71        6           4
    71        9           0
    71       10           4
    71       36           2
    71       46           0
    71       47           0
    71       57           4
    71       73           2
    71       76           4
    72        8           1
    72       29           0
    72       36           0
    72       52           3
    72       54           1
    72       59           1
    72       66           2
    72       76           3
    72       80           2
    72       84           3
    73        5           3
    73       10           4
    73       21           4
    73       23           4
    73       46           4
    73       48           3
    73       51           2
    73       60           0
    73       64           3
    73       72           4
    74        6           3
    74       13           4
    74       26           3
    74       46           3
    74       52           2
    74       56           4
    74       58           3
    74       67           2
    74       72           0
    74       86           0
    75        8           3
    75       19           3
    75       21           1
    75       22           1
    75       55           0
    75       61           3
    75       63           4
    75       65           4
    75       74           3
    75       77           0
    76        2           0
    76        7           1
    76       14           0
    76       22           4
    76       27           3
    76       30           2
    76       66           0
    76       71           4
    76       72           1
    76       75           0
    77        4           3
    77       25           1
    77       34           1
    77       41           0
    77       42           3
    77       47           1
    77       70           0
    77       75           0
    77       85           3
    77       92           3
    78       10           2
    78       15           3
    78       18           1
    78       29           3
    78       39           0
    78       53           1
    78       76           1
    78       86           2
    78       91           3
    78       97           0
    79        8           1
    79       15           0
    79       28           0
    79       37           1
    79       38           1
    79       40           1
    79       44           1
    79       51           1
    79       65           1
    79       71           1
    80        5           1
    80       13           3
    80       33           3
    80       43           2
    80       55           3
    80       56           1
    80       63           2
    80       78           3
    80       79           4
    80       85           1
    81        7           2
    81       13           0
    81       23           2
    81       46           1
    81       64           1
    81       66           3
    81       73           1
    81       80           2
    81       90           2
    81       91           3
    82        2           2
    82        5           1
    82        6           3
    82        7           2
    82       20           3
    82       23           1
    82       26           3
    82       27           0
    82       34           2
    82       36           3
    83        2           0
    83       11           0
    83       25           2
    83       44           4
    83       50           2
    83       51           4
    83       64           2
    83       66           1
    83       78           1
    83       88           4
    84        2           4
    84        3           4
    84        4           2
    84        9           0
    84       12           4
    84       19           4
    84       27           1
    84       28           3
    84       33           1
    84       41           2
    85        6           4
    85        7           3
    85       17           1
    85       20           4
    85       28           2
    85       29           1
    85       38           2
    85       42           4
    85       51           3
    85       60           3
    86        5           3
    86       41           3
    86       42           0
    86       43           1
    86       54           0
    86       61           4
    86       65           1
    86       68           1
    86       82           2
    86       85           0
    87       36           2
    87       53           4
    87       57           4
    87       62           0
    87       71           2
    87       85           3
    87       89           4
    87       91           1
    87       93           0
    87       94           3
    88       12           4
    88       13           0
    88       14           0
    88       25           0
    88       35           1
    88       38           0
    88       41           4
    88       52           1
    88       65           0
    88       80           3
    89        9           2
    89       22           0
    89       37           0
    89       40           3
    89       63           1
    89       67           0
    89       74           1
    89       86           3
    89       91           1
    89       93           1
    90       17           0
    90       18           3
    90       43           1
    90       46           3
    90       65           2
    90       66           4
    90       75           3
    90       76           2
    90       77           3
    90       86           3
    91        3           0
    91        5           4
    91       16           0
    91       35           3
    91       80           3
    91       81           3
    91       83           1
    91       98           3
    91       99           0
    91      100           0
    92       18           3
    92       29           4
    92       67           0
    92       81           2
    92       89           2
    92       93           2
    92       95           0
    92       96           3
    92       97           3
    92       99           4
    93        4           2
    93       11           2
    93       16           2
    93       24           3
    93       45           4
    93       62           3
    93       68           0
    93       69           0
    93       72           2
    93       76           4
    94        9           3
    94       35           0
    94       77           4
    94       78           3
    94       84           1
    94       90           2
    94       91           2
    94       94           3
    94       95           2
    94       96           3
    95        1           3
    95        2           1
    95        4           4
    95       16           3
    95       22           2
    95       51           1
    95       55           4
    95       65           0
    95       68           4
    95       71           4
    96        3           0
    96       23           1
    96       32           2
    96       39           3
    96       51           4
    96       58           4
    96       80           4
    96       84           2
    96       88           0
    96       89           0
    97        4           0
    97       21           3
    97       28           0
    97       30           2
    97       31           3
    97       35           2
    97       36           2
    97       37           2
    97       55           1
    97       65           1
    98        8           2
    98       16           3
    98       20           0
    98       30           1
    98       34           1
    98       44           2
    98       74           1
    98       80           0
    98       87           0
    98       93           4
    99        3           3
    99       13           0
    99       38           2
    99       67           3
    99       93           0
    99       94           0
    99       96           3
    99       98           0
    99       99           3
    99      100           0
   100        5           3
   100       24           0
   100       49           4
   100       61           4
   100       63           1
   100       69           0
   100       82           2
   100       87           2
   100       91           0
   100       92           2
